p edges 97 895
e 1 2
e 1 3
e 1 66
e 1 67
e 1 68
e 1 69
e 1 70
e 1 71
e 1 72
e 1 73
e 1 74
e 1 75
e 1 76
e 1 77
e 1 78
e 1 79
e 2 3
e 2 69
e 2 70
e 2 71
e 2 72
e 2 73
e 2 74
e 2 75
e 2 76
e 2 77
e 2 78
e 4 27
e 4 28
e 5 36
e 5 37
e 6 38
e 6 39
e 6 40
e 6 41
e 6 42
e 6 43
e 6 44
e 6 45
e 6 46
e 6 47
e 6 48
e 6 49
e 6 50
e 6 51
e 6 52
e 6 53
e 6 54
e 6 55
e 6 56
e 7 59
e 7 60
e 7 61
e 8 21
e 8 22
e 9 67
e 9 68
e 9 69
e 9 70
e 9 71
e 9 72
e 9 73
e 9 74
e 9 75
e 9 76
e 9 77
e 9 78
e 10 27
e 11 36
e 12 13
e 12 14
e 12 15
e 12 16
e 12 17
e 12 18
e 12 19
e 12 20
e 12 38
e 12 39
e 12 40
e 12 41
e 12 42
e 12 43
e 12 44
e 12 45
e 12 46
e 12 47
e 12 48
e 12 49
e 12 50
e 12 51
e 12 52
e 12 53
e 12 54
e 12 55
e 12 56
e 12 57
e 13 14
e 13 15
e 13 16
e 13 17
e 13 18
e 13 19
e 13 20
e 13 38
e 13 39
e 13 40
e 13 41
e 13 42
e 13 43
e 13 44
e 13 45
e 13 46
e 13 47
e 13 48
e 13 49
e 13 50
e 13 51
e 13 52
e 13 53
e 13 54
e 13 55
e 13 56
e 13 57
e 14 15
e 14 16
e 14 17
e 14 18
e 14 19
e 14 20
e 14 38
e 14 39
e 14 40
e 14 41
e 14 42
e 14 43
e 14 44
e 14 45
e 14 46
e 14 47
e 14 48
e 14 49
e 14 50
e 14 51
e 14 52
e 14 53
e 14 54
e 14 55
e 14 56
e 14 57
e 15 16
e 15 17
e 15 18
e 15 19
e 15 20
e 15 38
e 15 39
e 15 40
e 15 41
e 15 42
e 15 43
e 15 44
e 15 45
e 15 46
e 15 47
e 15 48
e 15 49
e 15 50
e 15 51
e 15 52
e 15 53
e 15 54
e 15 55
e 15 56
e 15 57
e 16 17
e 16 18
e 16 19
e 16 20
e 16 38
e 16 39
e 16 40
e 16 41
e 16 42
e 16 43
e 16 44
e 16 45
e 16 46
e 16 47
e 16 48
e 16 49
e 16 50
e 16 51
e 16 52
e 16 53
e 16 54
e 16 55
e 16 56
e 16 57
e 17 18
e 17 19
e 17 20
e 17 38
e 17 39
e 17 40
e 17 41
e 17 42
e 17 43
e 17 44
e 17 45
e 17 46
e 17 47
e 17 48
e 17 49
e 17 50
e 17 51
e 17 52
e 17 53
e 17 54
e 17 55
e 17 56
e 17 57
e 18 19
e 18 20
e 18 38
e 18 39
e 18 40
e 18 41
e 18 42
e 18 43
e 18 44
e 18 45
e 18 46
e 18 47
e 18 48
e 18 49
e 18 50
e 18 51
e 18 52
e 18 53
e 18 54
e 18 55
e 18 56
e 18 57
e 19 20
e 19 38
e 19 39
e 19 40
e 19 41
e 19 42
e 19 43
e 19 44
e 19 45
e 19 46
e 19 47
e 19 48
e 19 49
e 19 50
e 19 51
e 19 52
e 19 53
e 19 54
e 19 55
e 19 56
e 19 57
e 20 38
e 20 39
e 20 40
e 20 41
e 20 42
e 20 43
e 20 44
e 20 45
e 20 46
e 20 47
e 20 48
e 20 49
e 20 50
e 20 51
e 20 52
e 20 53
e 20 54
e 20 55
e 20 56
e 20 57
e 21 22
e 21 59
e 22 59
e 22 60
e 22 61
e 22 62
e 22 63
e 22 64
e 22 65
e 23 79
e 24 25
e 24 26
e 24 27
e 24 28
e 24 80
e 25 26
e 25 27
e 25 28
e 25 80
e 25 81
e 26 27
e 26 28
e 26 80
e 26 81
e 27 28
e 27 80
e 28 80
e 29 30
e 29 31
e 29 32
e 29 33
e 29 34
e 29 35
e 29 36
e 29 37
e 29 81
e 29 82
e 29 83
e 29 84
e 30 31
e 30 32
e 30 33
e 30 34
e 30 35
e 30 36
e 30 37
e 30 81
e 30 82
e 30 83
e 30 84
e 31 32
e 31 33
e 31 34
e 31 35
e 31 36
e 31 37
e 31 82
e 31 83
e 31 84
e 31 85
e 32 33
e 32 34
e 32 35
e 32 36
e 32 37
e 32 82
e 32 83
e 32 84
e 32 85
e 32 86
e 33 34
e 33 35
e 33 36
e 33 37
e 33 83
e 33 84
e 33 85
e 33 86
e 33 87
e 34 35
e 34 36
e 34 37
e 34 83
e 34 84
e 34 85
e 34 86
e 34 87
e 35 36
e 35 37
e 35 83
e 35 84
e 35 85
e 35 86
e 35 87
e 35 88
e 36 37
e 36 80
e 36 81
e 36 82
e 36 83
e 37 81
e 37 82
e 37 83
e 37 84
e 38 39
e 38 40
e 38 41
e 38 42
e 38 43
e 38 44
e 38 45
e 38 46
e 38 47
e 38 48
e 38 49
e 38 50
e 38 51
e 38 52
e 38 53
e 38 54
e 38 55
e 38 56
e 38 57
e 38 83
e 38 84
e 38 85
e 38 86
e 38 87
e 38 88
e 38 89
e 38 90
e 39 40
e 39 41
e 39 42
e 39 43
e 39 44
e 39 45
e 39 46
e 39 47
e 39 48
e 39 49
e 39 50
e 39 51
e 39 52
e 39 53
e 39 54
e 39 55
e 39 56
e 39 57
e 39 84
e 39 85
e 39 86
e 39 87
e 39 88
e 39 89
e 39 90
e 39 91
e 40 41
e 40 42
e 40 43
e 40 44
e 40 45
e 40 46
e 40 47
e 40 48
e 40 49
e 40 50
e 40 51
e 40 52
e 40 53
e 40 54
e 40 55
e 40 56
e 40 57
e 40 85
e 40 86
e 40 87
e 40 88
e 40 89
e 40 90
e 40 91
e 40 92
e 41 42
e 41 43
e 41 44
e 41 45
e 41 46
e 41 47
e 41 48
e 41 49
e 41 50
e 41 51
e 41 52
e 41 53
e 41 54
e 41 55
e 41 56
e 41 57
e 41 85
e 41 86
e 41 87
e 41 88
e 41 89
e 41 90
e 41 91
e 41 92
e 42 43
e 42 44
e 42 45
e 42 46
e 42 47
e 42 48
e 42 49
e 42 50
e 42 51
e 42 52
e 42 53
e 42 54
e 42 55
e 42 56
e 42 57
e 42 86
e 42 87
e 42 88
e 42 89
e 42 90
e 42 91
e 42 92
e 42 93
e 43 44
e 43 45
e 43 46
e 43 47
e 43 48
e 43 49
e 43 50
e 43 51
e 43 52
e 43 53
e 43 54
e 43 55
e 43 56
e 43 57
e 43 87
e 43 88
e 43 89
e 43 90
e 43 91
e 43 92
e 43 93
e 44 45
e 44 46
e 44 47
e 44 48
e 44 49
e 44 50
e 44 51
e 44 52
e 44 53
e 44 54
e 44 55
e 44 56
e 44 57
e 44 88
e 44 89
e 44 90
e 44 91
e 44 92
e 44 93
e 45 46
e 45 47
e 45 48
e 45 49
e 45 50
e 45 51
e 45 52
e 45 53
e 45 54
e 45 55
e 45 56
e 45 57
e 45 88
e 45 89
e 45 90
e 45 91
e 45 92
e 45 93
e 46 47
e 46 48
e 46 49
e 46 50
e 46 51
e 46 52
e 46 53
e 46 54
e 46 55
e 46 56
e 46 57
e 46 89
e 46 90
e 46 91
e 46 92
e 46 93
e 47 48
e 47 49
e 47 50
e 47 51
e 47 52
e 47 53
e 47 54
e 47 55
e 47 56
e 47 57
e 47 90
e 47 91
e 47 92
e 47 93
e 48 49
e 48 50
e 48 51
e 48 52
e 48 53
e 48 54
e 48 55
e 48 56
e 48 57
e 48 90
e 48 91
e 48 92
e 48 93
e 49 50
e 49 51
e 49 52
e 49 53
e 49 54
e 49 55
e 49 56
e 49 57
e 49 90
e 49 91
e 49 92
e 49 93
e 50 51
e 50 52
e 50 53
e 50 54
e 50 55
e 50 56
e 50 57
e 50 90
e 50 91
e 50 92
e 50 93
e 51 52
e 51 53
e 51 54
e 51 55
e 51 56
e 51 57
e 51 90
e 51 91
e 51 92
e 51 93
e 52 53
e 52 54
e 52 55
e 52 56
e 52 57
e 52 90
e 52 91
e 52 92
e 52 93
e 53 54
e 53 55
e 53 56
e 53 57
e 53 90
e 53 91
e 53 92
e 53 93
e 54 55
e 54 56
e 54 57
e 54 90
e 54 91
e 54 92
e 54 93
e 55 56
e 55 57
e 55 90
e 55 91
e 55 92
e 55 93
e 56 57
e 56 90
e 56 91
e 56 92
e 56 93
e 57 83
e 57 84
e 57 85
e 57 86
e 57 87
e 57 88
e 57 89
e 57 90
e 58 59
e 58 60
e 58 61
e 58 62
e 58 63
e 58 64
e 58 65
e 58 94
e 58 95
e 58 96
e 59 60
e 59 61
e 59 62
e 59 63
e 59 64
e 59 65
e 59 90
e 59 91
e 59 92
e 59 93
e 59 94
e 60 61
e 60 62
e 60 63
e 60 64
e 60 65
e 60 93
e 60 94
e 60 95
e 60 96
e 61 62
e 61 63
e 61 64
e 61 65
e 61 94
e 61 95
e 61 96
e 62 63
e 62 64
e 62 65
e 62 93
e 62 94
e 62 95
e 62 96
e 63 64
e 63 65
e 63 93
e 63 94
e 63 95
e 63 96
e 64 65
e 64 92
e 64 93
e 64 94
e 64 95
e 65 91
e 65 92
e 65 93
e 65 94
e 65 95
e 66 67
e 66 68
e 66 69
e 66 70
e 66 71
e 66 72
e 66 73
e 66 74
e 66 75
e 66 76
e 66 77
e 66 78
e 66 79
e 66 96
e 66 97
e 67 68
e 67 69
e 67 70
e 67 71
e 67 72
e 67 73
e 67 74
e 67 75
e 67 76
e 67 77
e 67 78
e 67 79
e 67 95
e 67 96
e 67 97
e 68 69
e 68 70
e 68 71
e 68 72
e 68 73
e 68 74
e 68 75
e 68 76
e 68 77
e 68 78
e 68 79
e 68 96
e 68 97
e 69 70
e 69 71
e 69 72
e 69 73
e 69 74
e 69 75
e 69 76
e 69 77
e 69 78
e 69 79
e 69 96
e 69 97
e 70 71
e 70 72
e 70 73
e 70 74
e 70 75
e 70 76
e 70 77
e 70 78
e 70 79
e 70 97
e 71 72
e 71 73
e 71 74
e 71 75
e 71 76
e 71 77
e 71 78
e 71 79
e 71 97
e 72 73
e 72 74
e 72 75
e 72 76
e 72 77
e 72 78
e 72 79
e 72 97
e 73 74
e 73 75
e 73 76
e 73 77
e 73 78
e 73 79
e 73 97
e 74 75
e 74 76
e 74 77
e 74 78
e 74 79
e 75 76
e 75 77
e 75 78
e 75 79
e 76 77
e 76 78
e 76 79
e 77 78
e 77 79
e 78 79
e 79 94
e 79 95
e 79 96
e 79 97
e 80 81
e 80 82
e 81 82
e 83 84
e 83 85
e 83 86
e 83 87
e 83 88
e 83 89
e 84 85
e 84 86
e 84 87
e 84 88
e 84 89
e 85 86
e 85 87
e 85 88
e 85 89
e 86 87
e 86 88
e 86 89
e 87 88
e 87 89
e 88 89
e 90 91
e 90 92
e 90 93
e 91 92
e 91 93
e 92 93
e 94 95
e 94 96
e 94 97
e 95 96
e 95 97
e 96 97
w 1 716
w 2 268
w 3 14
w 4 500
w 5 500
w 6 25
w 7 500
w 8 500
w 9 500
w 10 500
w 11 500
w 12 3
w 13 3
w 14 3
w 15 3
w 16 2
w 17 2
w 18 1
w 19 1
w 20 1
w 21 444
w 22 55
w 23 499
w 24 297
w 25 101
w 26 101
w 27 398
w 28 101
w 29 50
w 30 152
w 31 114
w 32 80
w 33 49
w 34 49
w 35 2
w 36 398
w 37 101
w 38 372
w 39 335
w 40 114
w 41 114
w 42 3
w 43 3
w 44 2
w 45 2
w 46 2
w 47 2
w 48 2
w 49 2
w 50 2
w 51 2
w 52 1
w 53 1
w 54 1
w 55 1
w 56 1
w 57 25
w 58 55
w 59 398
w 60 46
w 61 55
w 62 55
w 63 9
w 64 189
w 65 189
w 66 216
w 67 283
w 68 67
w 69 14
w 70 14
w 71 14
w 72 14
w 73 14
w 74 14
w 75 14
w 76 14
w 77 14
w 78 14
w 79 283
w 80 601
w 81 297
w 82 101
w 83 601
w 84 246
w 85 37
w 86 34
w 87 31
w 88 25
w 89 23
w 90 601
w 91 62
w 92 221
w 93 111
w 94 601
w 95 208
w 96 134
w 97 55
n 1 C7928
n 2 C7931
n 3 C7941
n 4 C1258
n 5 C1259
n 6 C1260
n 7 C1261
n 8 C1486
n 9 C1262
n 10 C1544
n 11 C2160
n 12 C2807
n 13 C2808
n 14 C2809
n 15 C2810
n 16 C2811
n 17 C2812
n 18 C2813
n 19 C2814
n 20 C2815
n 21 C3392
n 22 C3397
n 23 C4008
n 24 C4625
n 25 C4626
n 26 C4627
n 27 C4792
n 28 C4793
n 29 C5241
n 30 C5242
n 31 C5243
n 32 C5244
n 33 C5245
n 34 C5246
n 35 C5303
n 36 C5352
n 37 C5353
n 38 C5856
n 39 C5857
n 40 C5858
n 41 C5859
n 42 C5860
n 43 C5861
n 44 C5862
n 45 C5863
n 46 C5864
n 47 C5865
n 48 C5866
n 49 C5867
n 50 C5868
n 51 C5869
n 52 C5870
n 53 C5871
n 54 C5872
n 55 C5873
n 56 C5874
n 57 C5912
n 58 C6590
n 59 C6640
n 60 C6643
n 61 C6645
n 62 C6700
n 63 C6755
n 64 C6810
n 65 C6865
n 66 C7370
n 67 C7425
n 68 C7426
n 69 C7427
n 70 C7428
n 71 C7429
n 72 C7430
n 73 C7431
n 74 C7432
n 75 C7433
n 76 C7434
n 77 C7435
n 78 C7436
n 79 C7536
n 80 C7704
n 81 C7706
n 82 C7708
n 83 C7760
n 84 C7761
n 85 C7763
n 86 C7764
n 87 C7765
n 88 C7767
n 89 C7768
n 90 C7816
n 91 C7817
n 92 C7818
n 93 C7820
n 94 C7872
n 95 C7873
n 96 C7875
n 97 C7879
o 1 1
o 2 4
o 3 14
o 4 81
o 5 138
o 6 195
o 7 252
o 8 308
o 9 309
o 10 367
o 11 983
o 12 1630
o 13 1631
o 14 1632
o 15 1633
o 16 1634
o 17 1635
o 18 1636
o 19 1637
o 20 1638
o 21 2215
o 22 2220
o 23 2831
o 24 3448
o 25 3449
o 26 3450
o 27 3615
o 28 3616
o 29 4064
o 30 4065
o 31 4066
o 32 4067
o 33 4068
o 34 4069
o 35 4126
o 36 4175
o 37 4176
o 38 4679
o 39 4680
o 40 4681
o 41 4682
o 42 4683
o 43 4684
o 44 4685
o 45 4686
o 46 4687
o 47 4688
o 48 4689
o 49 4690
o 50 4691
o 51 4692
o 52 4693
o 53 4694
o 54 4695
o 55 4696
o 56 4697
o 57 4735
o 58 5413
o 59 5463
o 60 5466
o 61 5468
o 62 5523
o 63 5578
o 64 5633
o 65 5688
o 66 6193
o 67 6248
o 68 6249
o 69 6250
o 70 6251
o 71 6252
o 72 6253
o 73 6254
o 74 6255
o 75 6256
o 76 6257
o 77 6258
o 78 6259
o 79 6359
o 80 6527
o 81 6529
o 82 6531
o 83 6583
o 84 6584
o 85 6586
o 86 6587
o 87 6588
o 88 6590
o 89 6591
o 90 6639
o 91 6640
o 92 6641
o 93 6643
o 94 6695
o 95 6696
o 96 6698
o 97 6702
